# INCAR for adsorption structure refinement (Phase 2: accurate)
# Start from CONTCAR of pre-relaxation (Phase 1)
# This gives the final energy for adsorption energy calculation

# Electronic
ALGO = Fast
EDIFF = 1e-05
ENCUT = 680
PREC = Accurate
ISMEAR = 0
SIGMA = 0.1
ISPIN = 2
NELM = 200
NELMIN = 5
LREAL = Auto
LASPH = True
LMAXMIX = 6
LMIXTAU = True

# Ionic
IBRION = 1
ISIF = 2
NSW = 100
EDIFFG = -0.02

# Parallelization
KPAR = 4
NCORE = 16
KSPACING = 0.15

# Slab dipole correction
LDIPOL = True
IDIPOL = 3

# Output for analysis
LWAVE = False
LCHARG = True
LAECHG = False
LELF = False
LORBIT = 11
LVTOT = False
LVHAR = True
NEDOS = 2000
