# INCAR for adsorption structure pre-relaxation (Phase 1: coarse)
# Purpose: get the structure close to the minimum quickly
# Follow with INCAR_ads_refine for final accurate energy

# Electronic
ALGO = Fast
EDIFF = 1e-04
ENCUT = 520
PREC = Normal
ISMEAR = 0
SIGMA = 0.1
ISPIN = 2
NELM = 120
NELMIN = 4
LREAL = Auto
LASPH = True
LMAXMIX = 6
LMIXTAU = True

# Ionic
IBRION = 2
ISIF = 2
NSW = 200
EDIFFG = -0.05

# Parallelization
KPAR = 4
NCORE = 16
KSPACING = 0.20

# Slab dipole correction
LDIPOL = True
IDIPOL = 3

# Skip expensive I/O (not needed for relaxation)
LWAVE = False
LCHARG = False
LAECHG = False
LELF = False
LORBIT = 0
LVTOT = False
LVHAR = False
